32      4       
10      10      10      10      
0       0       0       0       0       15      2       3       5       7       8       11      23      24      25      26      27      28      29      30      31      
4       1       1       1       0       9       9       13      15      16      17      18      20      21      22      
3       3       3       0       1       3       4       14      18      
2       6       0       5       2       4       6       13      16      17      
10      2       0       5       6       4       12      13      14      15      
3       3       3       0       6       1       9       
1       5       0       3       3       2       14      19      
1       4       4       3       0       2       14      15      
4       6       0       3       4       1       10      
9       3       3       6       0       1       12      
4       7       3       6       0       1       13      
7       5       2       2       0       1       32      
9       0       7       5       3       1       32      
10      5       4       6       0       1       32      
6       0       7       5       7       1       32      
10      0       7       5       4       1       32      
1       3       0       2       5       1       32      
10      0       5       3       2       1       32      
10      4       7       0       5       1       32      
4       0       2       3       4       1       32      
9       3       0       4       5       1       32      
7       3       4       6       0       1       32      
10      5       5       6       0       1       32      
8       0       3       5       4       1       32      
4       3       1       0       6       1       32      
4       0       2       2       2       1       32      
7       0       3       6       5       1       32      
6       3       5       3       0       1       32      
2       3       0       3       2       1       32      
4       7       7       2       0       1       32      
6       4       4       0       4       1       32      
0       0       0       0       0       0       
